SPARKNaCl/why3-z3/sparknacl-cryptobox.ads_93_21_postcondition_1.smt2
;; produced by z3_gnatprove.drv ;;
(set-info :smt-lib-version 2.5)
(set-info :source |VC generated by SPARK 2014|)
(set-info :category industrial)
(set-info :status unknown)
;;; generated by SMT-LIB2 driver
;;; SMT-LIB2 driver: bit-vectors, common part
;;; SMT-LIB2: integer arithmetic
(declare-sort byte 0)

;; "to_rep"
(declare-fun to_rep (byte) (_ BitVec 8))

;; "of_rep"
(declare-fun of_rep ((_ BitVec 8)) byte)

;; "inversion_axiom"
(assert
  (forall ((x byte)) (! (= (of_rep (to_rep x)) x) :pattern ((to_rep x)) )))

;; "range_axiom"
(assert true)

;; "coerce_axiom"
(assert
  (forall ((x (_ BitVec 8)))
    (! (= (to_rep (of_rep x)) x) :pattern ((to_rep (of_rep x))) )))

(declare-sort map1 0)

(declare-datatypes ()
  ((map__ref (map__refqtmk (map__content map1)))))

;; "has_bounds"
(declare-fun has_bounds (map1
  Int
  Int) Bool)

;; "get"
(declare-fun get (map1
  Int) byte)

;; "slide"
(declare-fun slide (map1
  Int
  Int) map1)

;; "slide_eq"
(assert
  (forall ((a map1) (first Int))
    (! (= (slide a first first) a) :pattern ((slide a first first)) )))

;; "slide_def"
(assert
  (forall ((a map1) (old_first Int) (new_first Int))
    (! (and
         (forall ((i Int))
           (! (= (get (slide a old_first new_first) i) (get
                                                         a
                                                         (- i (- new_first old_first)))) :pattern (
           (get
             (slide a old_first new_first)
             i)) ))
         (forall ((new_last Int))
           (! (=>
                (has_bounds a old_first (- new_last (- new_first old_first)))
                (has_bounds (slide a old_first new_first) new_first new_last)) :pattern (
           (has_bounds
             (slide a old_first new_first)
             new_first
             new_last)) ))) :pattern ((slide a old_first new_first)) )))

;; "slice"
(declare-fun slice (map1
  Int
  Int) map1)

;; "slice_eq"
(assert
  (forall ((a map1) (f Int) (l Int))
    (! (=> (has_bounds a f l) (= (slice a f l) a)) :pattern ((slice a f l)
    (has_bounds a f l)) )))

;; "slice_slice"
(assert
  (forall ((a map1) (f1 Int) (l1 Int) (f2 Int) (l2 Int))
    (! (=>
         (and (<= f1 f2) (<= l2 l1))
         (= (slice (slice a f1 l1) f2 l2) (slice a f2 l2))) :pattern (
    (slice
      (slice a f1 l1)
      f2
      l2)) )))

;; "slice_def"
(assert
  (forall ((a map1) (f Int) (l Int))
    (! (forall ((i Int))
         (! (=> (and (<= f i) (<= i l)) (= (get (slice a f l) i) (get a i))) :pattern (
         (get
           (slice a f l)
           i)) :pattern ((get a i)) )) :pattern ((slice a f l)) )))

;; "slice_has_bounds"
(assert
  (forall ((a map1) (f Int) (l Int))
    (! (has_bounds (slice a f l) f l) :pattern ((has_bounds
                                                  (slice a f l)
                                                  f
                                                  l)) )))

(declare-datatypes ()
  ((us_split_fields
   (us_split_fieldsqtmk
   (rec__ada___sparknacl__cryptobox__public_key__f map1)))))

(declare-datatypes ()
  ((us_rep (us_repqtmk (us_split_fields1 us_split_fields)))))

;; "dynamic_invariant"
(define-fun dynamic_invariant ((temp___expr_283 us_rep) (temp___is_init_279 Bool) (temp___skip_constant_280 Bool) (temp___do_toplevel_281 Bool) (temp___do_typ_inv_282 Bool)) Bool
  (has_bounds
    (rec__ada___sparknacl__cryptobox__public_key__f
      (us_split_fields1 temp___expr_283))
    0
    31))

(declare-datatypes ()
  ((us_split_fields2
   (us_split_fieldsqtmk1
   (rec__ada___sparknacl__cryptobox__secret_key__f map1)))))

(declare-datatypes ()
  ((us_rep1 (us_repqtmk1 (us_split_fields3 us_split_fields2)))))

;; "dynamic_invariant"
(define-fun dynamic_invariant1 ((temp___expr_272 us_rep1) (temp___is_init_268 Bool) (temp___skip_constant_269 Bool) (temp___do_toplevel_270 Bool) (temp___do_typ_inv_271 Bool)) Bool
  (has_bounds
    (rec__ada___sparknacl__cryptobox__secret_key__f
      (us_split_fields3 temp___expr_272))
    0
    31))

(declare-sort us_main_type 0)

(declare-datatypes ()
  ((us_split_fields4
   (us_split_fieldsqtmk2
   (rec__ada___sparknacl__core__salsa20_key us_main_type)))))

(declare-datatypes ()
  ((us_split_fields__ref
   (us_split_fields__refqtmk (us_split_fields__content us_split_fields4)))))

(declare-datatypes ()
  ((us_rep2 (us_repqtmk2 (us_split_fields5 us_split_fields4)))))

(declare-sort tinteger_32B 0)

;; "tinteger_32B'int"
(declare-fun tinteger_32Bqtint (tinteger_32B) Int)

;; "tinteger_32B'axiom"
(assert
  (forall ((i tinteger_32B))
    (and
      (<= (- 2147483648) (tinteger_32Bqtint i))
      (<= (tinteger_32Bqtint i) 2147483647))))

;; "in_range"
(define-fun in_range ((x Int)) Bool
  (and (<= (- 2147483648) x) (<= x 2147483647)))

;; "to_rep"
(define-fun to_rep1 ((x tinteger_32B)) Int
  (tinteger_32Bqtint x))

;; "of_rep"
(declare-fun of_rep1 (Int) tinteger_32B)

;; "inversion_axiom"
(assert
  (forall ((x tinteger_32B))
    (! (= (of_rep1 (to_rep1 x)) x) :pattern ((to_rep1 x)) )))

;; "range_axiom"
(assert
  (forall ((x tinteger_32B))
    (! (in_range (to_rep1 x)) :pattern ((to_rep1 x)) )))

;; "coerce_axiom"
(assert
  (forall ((x Int))
    (! (=> (in_range x) (= (to_rep1 (of_rep1 x)) x)) :pattern ((to_rep1
                                                                 (of_rep1 x))) )))

;; "in_range"
(define-fun in_range1 ((x Int)) Bool
  (and (<= 0 x) (<= x 2147483647)))

(declare-datatypes ()
  ((t (tqtmk (rec__first tinteger_32B)(rec__last tinteger_32B)))))

;; "mk"
(declare-fun mk (Int
  Int) t)

;; "mk_def"
(assert
  (forall ((f Int) (l Int))
    (! (=>
         (in_range f)
         (=>
           (in_range l)
           (and
             (= (to_rep1 (rec__first (mk f l))) f)
             (= (to_rep1 (rec__last (mk f l))) l)))) :pattern ((mk f l)) )))

;; "dynamic_property"
(define-fun dynamic_property ((range_first Int) (range_last Int) (low Int) (high Int)) Bool
  (and
    (in_range low)
    (and
      (in_range high)
      (=> (<= low high) (and (in_range1 low) (in_range1 high))))))

(declare-datatypes ()
  ((us_t (us_tqtmk (elts map1)(rt t)))))

;; "to_array"
(define-fun to_array ((a us_t)) map1
  (elts a))

;; "of_array"
(define-fun of_array ((a map1) (f Int) (l Int)) us_t
  (us_tqtmk a (mk f l)))

;; "first"
(define-fun first ((a us_t)) Int
  (to_rep1 (rec__first (rt a))))

;; "last"
(define-fun last ((a us_t)) Int
  (to_rep1 (rec__last (rt a))))

;; "length"
(define-fun length ((a us_t)) Int
  (ite (<= (first a) (last a)) (+ (- (last a) (first a)) 1) 0))

;; "well_formed"
(define-fun well_formed ((a us_t)) Bool
  (has_bounds
    (elts a)
    (to_rep1 (rec__first (rt a)))
    (to_rep1 (rec__last (rt a)))))

;; "equal"
(declare-fun equal (us_t
  us_t) Bool)

;; "equal__function_guard"
(declare-fun equal__function_guard (Bool
  us_t
  us_t) Bool)

(declare-const zero_bytes_32 map1)

(declare-const zero_bytes_16 map1)

;; "dynamic_invariant"
(define-fun dynamic_invariant2 ((temp___expr_249 us_t) (temp___is_init_245 Bool) (temp___skip_constant_246 Bool) (temp___do_toplevel_247 Bool) (temp___do_typ_inv_248 Bool)) Bool
  (and
    (=>
      (not (= temp___skip_constant_246 true))
      (dynamic_property
        0
        2147483647
        (first temp___expr_249)
        (last temp___expr_249)))
    (well_formed temp___expr_249)))

(declare-const c__first tinteger_32B)

(declare-const c__last tinteger_32B)

(declare-const m us_t)

(declare-const n map1)

(declare-const recipient_pk us_rep)

(declare-const sender_sk us_rep1)

;; "sparknacl__zero_bytes_32__aggregate_def"
(declare-fun sparknacl__zero_bytes_32__aggregate_def ((_ BitVec 8)) map1)

;; "sparknacl__zero_bytes_16__aggregate_def"
(declare-fun sparknacl__zero_bytes_16__aggregate_def ((_ BitVec 8)) map1)

;; "zero_bytes_32__def_axiom"
(assert
  (= zero_bytes_32 (let ((temp___178 (sparknacl__zero_bytes_32__aggregate_def
                                       #x00)))
                     (let ((temp___179 temp___178)) temp___179))))

;; "def_axiom"
(assert
  (forall ((temp___174 (_ BitVec 8)))
    (let ((temp___175 (sparknacl__zero_bytes_32__aggregate_def temp___174)))
      (and
        (has_bounds temp___175 0 31)
        (forall ((temp___176 Int))
          (! (=>
               (and (<= 0 temp___176) (<= temp___176 31))
               (= (to_rep (get temp___175 temp___176)) temp___174)) :pattern (
          (get
            temp___175
            temp___176)) ))))))

;; "zero_bytes_16__def_axiom"
(assert
  (= zero_bytes_16 (let ((temp___184 (sparknacl__zero_bytes_16__aggregate_def
                                       #x00)))
                     (let ((temp___185 temp___184)) temp___185))))

;; "def_axiom"
(assert
  (forall ((temp___180 (_ BitVec 8)))
    (let ((temp___181 (sparknacl__zero_bytes_16__aggregate_def temp___180)))
      (and
        (has_bounds temp___181 0 15)
        (forall ((temp___182 Int))
          (! (=>
               (and (<= 0 temp___182) (<= temp___182 15))
               (= (to_rep (get temp___181 temp___182)) temp___180)) :pattern (
          (get
            temp___181
            temp___182)) ))))))

;; "equal__post_axiom"
(assert
  (forall ((param__x us_t) (param__y us_t))
    (! (=>
         (and
           (and
             (dynamic_invariant2 param__x true false true true)
             (dynamic_invariant2 param__y true false true true))
           (and
             (= (first param__x) (first param__y))
             (= (last param__x) (last param__y))))
         (let ((result (equal param__x param__y)))
           (=>
             (equal__function_guard result param__x param__y)
             (=
               (= result true)
               (forall ((i Int))
                 (=>
                   (and (<= (first param__x) i) (<= i (last param__x)))
                   (= (to_rep (get (to_array param__x) i)) (to_rep
                                                             (get
                                                               (to_array
                                                                 param__y)
                                                               i))))))))) :pattern (
    (equal
      param__x
      param__y)) )))

(declare-const c map1)

(declare-const status Bool)

(declare-const k__split_fields us_main_type)

;; "k__split_fields'unused"
(define-fun k__split_fieldsqtunused () us_split_fields__ref
  (us_split_fields__refqtmk (us_split_fieldsqtmk2 k__split_fields)))

;; "c'unused"
(define-fun cqtunused () map__ref
  (map__refqtmk c))

;; "Assume"
(assert (has_bounds zero_bytes_16 0 15))

(declare-const temp___884 map1)

;; "H"
(assert (has_bounds temp___884 0 15))

;; "H"
(assert
  (forall ((temp___183 Int))
    (! (=>
         (and (<= 0 temp___183) (<= temp___183 15))
         (= (to_rep (get temp___884 temp___183)) #x00)) :pattern ((get
                                                                    temp___884
                                                                    temp___183)) )))

;; "H"
(assert (= temp___884 (sparknacl__zero_bytes_16__aggregate_def #x00)))

;; "sparknacl__zero_bytes_16__aggregate_def'result'unused"
(define-fun sparknacl__zero_bytes_16__aggregate_defqtresultqtunused () map1
  temp___884)

;; "Assume"
(assert (= temp___884 zero_bytes_16))

;; "Assume"
(assert (has_bounds zero_bytes_32 0 31))

(declare-const temp___889 map1)

;; "H"
(assert (has_bounds temp___889 0 31))

;; "H"
(assert
  (forall ((temp___177 Int))
    (! (=>
         (and (<= 0 temp___177) (<= temp___177 31))
         (= (to_rep (get temp___889 temp___177)) #x00)) :pattern ((get
                                                                    temp___889
                                                                    temp___177)) )))

;; "H"
(assert (= temp___889 (sparknacl__zero_bytes_32__aggregate_def #x00)))

;; "sparknacl__zero_bytes_32__aggregate_def'result'unused"
(define-fun sparknacl__zero_bytes_32__aggregate_defqtresultqtunused () map1
  temp___889)

;; "Assume"
(assert (= temp___889 zero_bytes_32))

;; "Assume"
(assert
  (and
    (dynamic_property 0 2147483647 (to_rep1 c__first) (to_rep1 c__last))
    (well_formed (of_array c (to_rep1 c__first) (to_rep1 c__last)))))

;; "Assume"
(assert (dynamic_invariant2 m true false true true))

;; "Assume"
(assert (has_bounds n 0 23))

;; "Assume"
(assert (dynamic_invariant recipient_pk true false true true))

;; "Assume"
(assert (dynamic_invariant1 sender_sk true false true true))

;; "H"
(assert
  (forall ((temp___881 us_t) (temp___880 us_t))
    (equal__function_guard
      (equal temp___880 temp___881)
      temp___880
      temp___881)))

;; "Assume"
(assert
  (and
    (and
      (and
        (and (= (first m) 0) (= (to_rep1 c__first) 0))
        (= (to_rep1 c__last) (last m)))
      (<= 32 (length m)))
    (= (let ((temp___881 (of_array zero_bytes_32 0 31)))
         (let ((temp___880 (of_array (slice (to_array m) 0 31) 0 31)))
           (equal temp___880 temp___881))) true)))

;; "Assume"
(assert true)

;; "Assume"
(assert true)

;; "o"
(define-fun o () us_split_fields4
  (us_split_fieldsqtmk2 k__split_fields))

;; "__split_fields__content'result'unused"
(define-fun us_split_fields__contentqtresultqtunused () us_split_fields4
  o)

;; "__rep'mk'result'unused"
(define-fun us_repqtmkqtresultqtunused () us_rep2
  (us_repqtmk2 o))

(declare-const k__split_fields1 us_main_type)

;; "k__split_fields'unused"
(define-fun k__split_fieldsqtunused1 () us_split_fields__ref
  (us_split_fields__refqtmk (us_split_fieldsqtmk2 k__split_fields1)))

;; "H"
(assert true)

;; "H"
(assert true)

;; "H"
(assert true)

(declare-const o1 Int)

;; "Ensures"
(assert (= (to_rep1 c__last) o1))

;; "to_rep'result'unused"
(define-fun to_repqtresultqtunused () Int
  o1)

(declare-const o2 Int)

;; "Ensures"
(assert (= (to_rep1 c__first) o2))

;; "to_rep'result'unused"
(define-fun to_repqtresultqtunused1 () Int
  o2)

;; "map__content'result'unused"
(define-fun map__contentqtresultqtunused () map1
  c)

;; "temp___837"
(define-fun temp___837 () us_t
  (of_array c o2 o1))

;; "of_array'result'unused"
(define-fun of_arrayqtresultqtunused () us_t
  temp___837)

;; "temp___838"
(define-fun temp___838 () map1
  c)

;; "to_array'result'unused"
(define-fun to_arrayqtresultqtunused () map1
  temp___838)

;; "o"
(define-fun o3 () Int
  o1)

;; "last'result'unused"
(define-fun lastqtresultqtunused () Int
  o3)

;; "o"
(define-fun o4 () Int
  o2)

;; "first'result'unused"
(define-fun firstqtresultqtunused () Int
  o4)

;; "temp___compl_839"
(define-fun temp___compl_839 () us_t
  (of_array temp___838 o4 o3))

;; "of_array'result'unused"
(define-fun of_arrayqtresultqtunused1 () us_t
  temp___compl_839)

;; "o"
(define-fun o5 () map1
  temp___838)

;; "to_array'result'unused"
(define-fun to_arrayqtresultqtunused1 () map1
  o5)

;; "param__c'unused"
(define-fun param__cqtunused () map__ref
  (map__refqtmk o5))

;; "map__ref'mk'result'unused"
(define-fun map__refqtmkqtresultqtunused () map__ref
  (map__refqtmk o5))

;; "bool__content'result'unused"
(define-fun bool__contentqtresultqtunused () Bool
  status)

;; "o"
(define-fun o6 () us_split_fields4
  (us_split_fieldsqtmk2 k__split_fields1))

;; "__split_fields__content'result'unused"
(define-fun us_split_fields__contentqtresultqtunused1 () us_split_fields4
  o6)

;; "__rep'mk'result'unused"
(define-fun us_repqtmkqtresultqtunused1 () us_rep2
  (us_repqtmk2 o6))

;; "o"
(define-fun o7 () us_t
  m)

;; "o"
(define-fun o8 () Int
  o3)

;; "last'result'unused"
(define-fun lastqtresultqtunused1 () Int
  o8)

(declare-const o9 tinteger_32B)

;; "Ensures"
(assert (= (to_rep1 o9) o8))

;; "of_rep'result'unused"
(define-fun of_repqtresultqtunused () tinteger_32B
  o9)

;; "o"
(define-fun o10 () Int
  o4)

;; "first'result'unused"
(define-fun firstqtresultqtunused1 () Int
  o10)

(declare-const o11 tinteger_32B)

;; "Ensures"
(assert (= (to_rep1 o11) o10))

;; "of_rep'result'unused"
(define-fun of_repqtresultqtunused1 () tinteger_32B
  o11)

(declare-const param__c map1)

;; "param__c'unused"
(define-fun param__cqtunused1 () map__ref
  (map__refqtmk param__c))

;; "H"
(assert
  (forall ((temp___394 us_t) (temp___393 us_t))
    (equal__function_guard
      (equal temp___393 temp___394)
      temp___393
      temp___394)))

;; "H"
(assert
  (= (let ((temp___394 (of_array zero_bytes_16 0 15)))
       (let ((temp___393 (of_array (slice param__c 0 15) 0 15)))
         (equal temp___393 temp___394))) true))

;; "H"
(assert
  (dynamic_invariant2
    (of_array param__c (to_rep1 o11) (to_rep1 o9))
    true
    true
    true
    true))

;; "H"
(assert true)

;; "H"
(assert true)

;; "o"
(define-fun o12 () Int
  o3)

;; "last'result'unused"
(define-fun lastqtresultqtunused2 () Int
  o12)

;; "o"
(define-fun o13 () Int
  o4)

;; "first'result'unused"
(define-fun firstqtresultqtunused2 () Int
  o13)

;; "map__content'result'unused"
(define-fun map__contentqtresultqtunused1 () map1
  param__c)

;; "temp___842"
(define-fun temp___842 () us_t
  (of_array param__c o13 o12))

;; "of_array'result'unused"
(define-fun of_arrayqtresultqtunused2 () us_t
  temp___842)

(declare-const o14 Int)

;; "Ensures"
(assert (= (to_rep1 c__first) o14))

;; "to_rep'result'unused"
(define-fun to_repqtresultqtunused2 () Int
  o14)

;; "o"
(define-fun o15 () Int
  o13)

;; "first'result'unused"
(define-fun firstqtresultqtunused3 () Int
  o15)

;; "o"
(define-fun o16 () map1
  param__c)

;; "to_array'result'unused"
(define-fun to_arrayqtresultqtunused2 () map1
  o16)

;; "temp___846"
(define-fun temp___846 () map1
  (slide o16 o15 o14))

;; "slide'result'unused"
(define-fun slideqtresultqtunused () map1
  temp___846)

(declare-const o17 Int)

;; "Ensures"
(assert (= (to_rep1 c__last) o17))

;; "to_rep'result'unused"
(define-fun to_repqtresultqtunused3 () Int
  o17)

(declare-const o18 Int)

;; "Ensures"
(assert (= (to_rep1 c__first) o18))

;; "to_rep'result'unused"
(define-fun to_repqtresultqtunused4 () Int
  o18)

;; "o"
(define-fun o19 () us_t
  (of_array temp___846 o18 o17))

;; "of_array'result'unused"
(define-fun of_arrayqtresultqtunused3 () us_t
  o19)

;; "o"
(define-fun o20 () map1
  temp___846)

;; "to_array'result'unused"
(define-fun to_arrayqtresultqtunused3 () map1
  o20)

(declare-const c1 map1)

;; "c'unused"
(define-fun cqtunused1 () map__ref
  (map__refqtmk c1))

;; "H"
(assert (= c1 o20))

;; "o"
(define-fun o21 () us_split_fields4
  (us_split_fieldsqtmk2 k__split_fields1))

;; "__split_fields__content'result'unused"
(define-fun us_split_fields__contentqtresultqtunused2 () us_split_fields4
  o21)

;; "__rep'mk'result'unused"
(define-fun us_repqtmkqtresultqtunused2 () us_rep2
  (us_repqtmk2 o21))

(declare-const k__split_fields2 us_main_type)

;; "H"
(assert true)

;; "H"
(assert true)

;; "H"
(assert true)

;; "H"
(assert
  (forall ((temp___899 us_t) (temp___898 us_t))
    (equal__function_guard
      (equal temp___898 temp___899)
      temp___898
      temp___899)))

;; Goal "def'vc"
;; File "sparknacl-cryptobox.ads", line 81, characters 0-0
(assert
  (not
  (= (let ((temp___899 (of_array zero_bytes_16 0 15)))
       (let ((temp___898 (of_array (slice c1 0 15) 0 15)))
         (equal temp___898 temp___899))) true)))

(check-sat)
